NAME : XML100_1154_14
DIMENSION : 101
NB_CLUSTERS : 28
CLUSTERING_ALG : DBSCAN
CLUSTERING_PARAMS : eps(56), minSamples(3)
CLUSTERS
1 0
2 1 21 22 46 67 72 83 84
3 2 10 56 86
4 4 5 8 12 77 87 98
5 14 24 45 49 59 94 97
6 29 37 40 52 71 76 90
7 31 48 80 88
8 38 53 73 79
9 7 11 27 42 58 63 74 92
10 23 60
11 32 41 43
12 9 30 50 78 91
13 51 93
14 20 57 62
15 35 68 81
16 13 66
17 15 44
18 6 16 17 36
19 54 61
20 55 85 89
21 19 28 100
22 25 47 69
23 3 34 96
24 33 65 82
25 64 75
26 70 99
27 26 95
28 18 39
EOF